letting n =  10
letting blocks =  [[1, 1], [1, 6], [1, 7], [1, 8], [2, 1], [2, 3], [2, 6], [2, 7], [2, 8], [2, 10], [3, 3], [3, 4], [3, 5], [3, 7], [3, 9], [3, 10], [4, 3], [4, 5], [4, 7], [4, 9], [5, 2], [5, 4], [5, 6], [5, 9], [6, 1], [6, 3], [6, 4], [6, 7], [7, 1], [7, 4], [7, 9], [8, 1], [8, 3], [8, 9], [8, 10], [9, 1], [9, 4], [9, 5], [10, 4], [10, 5], [10, 6], [10, 7]]
